SAT
1 -43 -20 21 54 47 -64 -33 -2 27 31 -70 49 -8 -5 -14 -6 55 -28 -46 4 -3 71 -26 -63 -15 -39 -12 -60 -72 56 -38 40 -69 -73 59 37 45 -66 68 -44 57 74 -75 -17 30 -19 58 -62 48 52 11 -35 32 -7 -13 -50 41 -25 -51 -10 -22 53 -9 23 65 34 -36 -18 -61 -42 -67 24 16 29 0
